100	5
25	1000
20
30
10
40
20
20
20
10
20
30
40
20
10
10
20
20
20
20
40
10
10
40
30
10
20
30
20
10
10
10
20
10
10
30
20
40
10
30
10
30
20
10
20
10
10
10
10
10
10
30
19
3
5
16
16
19
23
20
19
17
9
3
6
17
16
16
9
21
27
23
14
8
5
8
16
31
7
27
30
13
10
9
14
18
2
28
13
19
25
6
13
14
3
23
6
26
35
9
15
3
40	50	0	960	0	0
25	85	0	911	10	3
22	75	0	919	10	1
22	85	0	910	10	3
20	80	644	764	10	2
20	85	0	909	10	2
18	75	0	916	10	3
15	75	0	914	10	2
15	80	367	487	10	1
10	35	371	491	10	1
10	40	0	918	10	3
8	40	195	315	10	2
8	45	0	917	10	2
5	35	653	773	10	3
5	45	0	914	10	1
2	40	174	294	10	2
0	40	0	908	10	3
0	45	0	909	10	2
44	5	0	904	10	2
42	10	0	909	10	1
42	15	0	914	10	2
40	5	0	905	10	3
40	15	0	915	10	1
38	5	201	321	10	2
38	15	0	914	10	2
35	5	784	904	10	2
95	30	0	891	10	1
95	35	0	892	10	1
92	30	0	894	10	1
90	35	0	897	10	3
88	30	0	898	10	2
88	35	0	899	10	3
87	30	0	898	10	1
85	25	0	898	10	2
85	35	0	902	10	2
67	85	0	905	10	1
65	85	0	906	10	3
65	82	0	909	10	2
62	80	278	398	10	2
60	80	0	913	10	1
60	85	0	909	10	3
58	75	0	919	10	3
55	80	0	916	10	3
55	85	0	911	10	2
55	82	217	337	10	3
20	82	0	912	10	3
18	80	0	912	10	3
2	45	0	911	10	3
42	5	0	904	10	1
42	12	0	911	10	1
72	35	0	914	10	2
55	20	0	916	10	3
25	30	0	925	10	3
20	50	375	495	10	3
55	60	0	931	10	3
30	60	599	719	10	2
50	35	0	931	10	3
30	25	0	923	10	2
15	10	782	902	10	3
10	20	0	907	10	3
15	60	0	923	10	2
45	65	0	934	10	1
65	35	167	287	10	3
65	20	0	910	10	1
45	30	0	929	10	3
35	40	0	938	10	3
41	37	0	936	10	3
64	42	268	388	10	1
40	60	0	940	10	3
31	52	157	277	10	1
35	69	0	930	10	2
65	55	0	924	10	3
63	65	0	922	10	3
2	60	0	910	10	2
20	20	645	765	10	1
5	5	0	892	10	1
60	12	268	388	10	1
23	3	764	884	10	2
8	56	0	917	10	3
6	68	352	472	10	3
47	47	0	942	10	3
49	58	0	937	10	1
27	43	0	935	10	1
37	31	0	930	10	2
57	29	395	515	10	1
63	23	0	914	10	1
21	24	0	917	10	3
12	24	359	479	10	1
24	58	0	932	10	1
67	5	0	897	10	2
37	47	0	945	10	3
49	42	0	937	10	1
53	43	14	134	10	3
61	52	0	928	10	1
57	48	0	932	10	1
56	37	0	929	10	3
55	54	0	934	10	2
4	18	0	901	10	1
26	52	0	935	10	1
26	35	308	428	10	3
31	67	810	930	10	3
81	71	0	960	5	4
58	55	0	960	5	4
25	51	0	960	5	4
42	46	0	960	5	4
37	61	0	960	5	4
0	0	0	0	1	
0	0	0	0	0	
0	0	0	0	1	
0	0	0	0	1	
0	0	0	0	1	
0	0	0	0	1	
0	0	1	0	0	
0	0	0	0	0	
0	0	0	0	0	
0	0	1	0	0	
0	0	1	0	0	
0	0	1	0	0	
0	0	1	0	0	
0	0	0	0	0	
0	0	1	0	0	
0	0	1	0	0	
0	0	1	0	0	
0	0	0	1	0	
0	0	0	0	0	
0	0	0	1	0	
0	0	0	1	0	
0	0	0	0	0	
0	0	0	1	0	
0	0	0	1	0	
0	0	0	1	0	
0	0	0	0	0	
0	0	0	0	0	
0	0	0	0	0	
1	0	0	0	0	
0	1	0	0	0	
0	1	0	0	0	
0	0	0	0	0	
0	1	0	0	0	
0	1	0	0	0	
0	0	0	0	0	
1	0	0	0	0	
1	0	0	0	0	
1	0	0	0	0	
0	0	0	0	0	
1	0	0	0	0	
0	1	0	0	0	
0	1	0	0	0	
1	0	0	0	0	
0	1	0	0	0	
0	0	0	0	1	
0	0	0	0	1	
0	0	1	0	0	
0	0	0	0	0	
0	0	0	0	0	
0	1	0	0	0	
0	0	0	1	0	
0	0	1	0	0	
0	0	1	0	0	
0	1	0	0	0	
0	0	0	0	1	
0	0	0	1	0	
0	0	0	1	0	
0	0	1	0	0	
0	0	1	0	0	
0	0	1	0	0	
0	0	0	0	0	
0	1	0	0	0	
0	0	0	0	0	
0	0	0	1	0	
0	0	0	1	0	
0	0	0	1	0	
0	0	0	0	0	
0	0	0	0	1	
0	0	0	0	0	
0	0	0	0	1	
0	1	0	0	0	
0	1	0	0	0	
0	0	1	0	0	
0	0	0	0	0	
0	0	0	0	0	
0	0	0	0	0	
0	0	0	1	0	
0	0	1	0	0	
0	0	1	0	0	
0	0	0	1	0	
0	0	0	0	0	
0	0	0	0	0	
0	0	0	1	0	
0	0	0	0	0	
0	0	0	0	0	
0	0	1	0	0	
0	0	0	0	0	
0	0	0	0	0	
0	0	0	1	0	
0	0	0	1	0	
0	0	0	0	0	
0	0	0	1	0	
0	0	0	0	0	
0	0	0	0	0	
0	0	0	1	0	
0	1	0	0	0	
0	0	0	0	0	
0	0	0	0	0	
0	0	1	0	0	
0	0	0	0	1	
